oldPaths = [0,0,1,0,0,1,0,0,1,1,1,1];
%Property 1 = Priority, Property 2 = Waiting Time
WaitingQueue = array3d(1..12,1..2,1..15,
[
%path1
1, 3, 1, 5, 1, 1, 1, 1, 1, 1, 1, 1, 1, 1, 1, %Priority
20, 1, 1, 1, 1, 1, 1, 1, 1, 1, 1, 1, 1, 1, 1, %TimeWaited
%path2
1, 1, 1, 1, 1, 1, 1, 1, 1, 1, 1, 1, 1, 1, 1, %Priority
1, 1, 1, 1, 1, 1, 1, 1, 1, 1, 1, 1, 1, 1, 1, %TimeWaited
%path3
1, 1, 1, 1, 1, 2, 1, 3, 1, 1, 1, 1, 1, 1, 1, %Priority
1, 1, 1, 1, 1, 1, 1, 1, 1, 1, 1, 1, 1, 1, 1, %TimeWaited
%path4
1, 1, 1, 6, 1, 2, 1, 1, 1, 1, 1, 1, 1, 1, 1, %Priority
1, 1, 1, 1, 1, 1, 1, 1, 1, 1, 1, 1, 1, 1, 1, %TimeWaited
%path5
1, 1, 4, 1, 1, 1, 1, 1, 1, 1, 1, 1, 1, 1, 1, %Priority
1, 1, 1, 1, 1, 1, 1, 1, 1, 1, 1, 1, 1, 1, 1, %TimeWaited
%path6
1, 1, 1, 1, 1, 1, 6, 1, 1, 1, 1, 1, 1, 1, 1, %Priority
1, 1, 1, 1, 1, 1, 1, 1, 1, 1, 1, 1, 1, 1, 1, %TimeWaited
%path7
1, 1, 1, 1, 1, 1, 1, 1, 1, 1, 1, 5, 1, 1, 1, %Priority
1, 1, 1, 1, 1, 1, 1, 1, 1, 1, 1, 1, 1, 1, 1, %TimeWaited
%path8
1, 1, 1, 1, 1, 7, 1, 1, 1, 4, 1, 1, 1, 1, 1, %Priority
1, 1, 1, 1, 1, 1, 1, 1, 1, 1, 1, 1, 1, 1, 1, %TimeWaited
%path9
1, 1, 1, 1, 1, 1, 1, 1, 1, 1, 1, 1, 1, 1, 1, %Priority
1, 1, 1, 1, 1, 1, 1, 1, 1, 1, 1, 1, 1, 1, 1, %TimeWaited
%path10
1, 1, 1, 1, 6, 1, 1, 1, 1, 1, 1, 1, 1, 1, 1, %Priority
1, 1, 1, 1, 1, 1, 1, 1, 1, 1, 1, 1, 1, 1, 1, %TimeWaited
%path11
1, 1, 1, 1, 1, 1, 5, 1, 1, 1, 1, 1, 1, 1, 1, %Priority
1, 1, 1, 1, 1, 1, 1, 1, 1, 1, 1, 1, 1, 1, 1, %TimeWaited
%path12
1, 1, 3, 1, 3, 3, 1, 3, 1, 1, 1, 3, 1, 1, 1, %Priority
1, 1, 1, 1, 1, 1, 1, 1, 1, 1, 1, 1, 1, 1, 1  %TimeWaited
]);